100
500
398
392
385
380
378
378
375
374
374
374
373
365
363
361
360
360
357
355
353
352
346
346
345
345
343
340
339
336
334
334
334
333
333
329
326
324
324
322
314
311
306
304
302
302
301
300
300
298
295
293
292
283
273
269
267
266
265
260
254
254
247
246
239
237
233
230
228
227
227
227
225
221
220
214
203
195
191
187
180
179
177
177
173
164
162
161
158
155
154
144
142
134
132
131
129
115
109
109
103
102
